NAME : portcgen-15-4
COMMENT : portcgen N=15, seed=4
TYPE : TSP
DIMENSION : 15
EDGE_WEIGHT_TYPE : EUC_2D
NODE_COORD_SECTION
1 63702 -389287
2 -121098 19927
3 211515 -586281
4 91826 -220855
5 -208057 -128116
6 -132391 -256200
7 6703 33201
8 197307 -251866
9 181022 -329998
10 118483 230041
11 399792 428153
12 6737 18042
13 -391852 -247009
14 -232652 -66097
15 210262 -118433
